
Gurobi 8.0.0 (win64, Python) logging started 12/01/18 20:52:02

Academic license - for non-commercial use only
Freed default Gurobi environment

Gurobi 8.0.0 (win64, Python) logging started 12/01/18 20:52:19

Academic license - for non-commercial use only
Freed default Gurobi environment

Gurobi 8.0.0 (win64, Python) logging started 12/01/18 20:52:28

Academic license - for non-commercial use only
Optimize a model with 120 rows, 90 columns and 288 nonzeros
Variable types: 0 continuous, 90 integer (90 binary)
Coefficient statistics:
  Matrix range     [1e+00, 1e+00]
  Objective range  [1e+02, 3e+04]
  Bounds range     [1e+00, 1e+00]
  RHS range        [1e+00, 1e+00]
Found heuristic solution: objective 74310.000000
Presolve removed 120 rows and 90 columns
Presolve time: 0.01s
Presolve: All rows and columns removed

Explored 0 nodes (0 simplex iterations) in 0.08 seconds
Thread count was 1 (of 4 available processors)

Solution count 2: 5340 74310 

Optimal solution found (tolerance 1.00e-04)
Best objective 5.340000000000e+03, best bound 5.340000000000e+03, gap 0.0000%
Freed default Gurobi environment

Gurobi 8.0.0 (win64, Python) logging started 12/01/18 20:54:53

Academic license - for non-commercial use only
Optimize a model with 120 rows, 90 columns and 288 nonzeros
Variable types: 0 continuous, 90 integer (90 binary)
Coefficient statistics:
  Matrix range     [1e+00, 1e+00]
  Objective range  [1e+02, 3e+04]
  Bounds range     [1e+00, 1e+00]
  RHS range        [1e+00, 1e+00]
Found heuristic solution: objective 74310.000000
Presolve removed 120 rows and 90 columns
Presolve time: 0.00s
Presolve: All rows and columns removed

Explored 0 nodes (0 simplex iterations) in 0.01 seconds
Thread count was 1 (of 4 available processors)

Solution count 2: 5340 74310 

Optimal solution found (tolerance 1.00e-04)
Best objective 5.340000000000e+03, best bound 5.340000000000e+03, gap 0.0000%
Freed default Gurobi environment

Gurobi 8.0.0 (win64, Python) logging started 12/01/18 21:00:01

Academic license - for non-commercial use only
Optimize a model with 120 rows, 90 columns and 288 nonzeros
Variable types: 0 continuous, 90 integer (90 binary)
Coefficient statistics:
  Matrix range     [1e+00, 1e+00]
  Objective range  [1e+02, 2e+04]
  Bounds range     [1e+00, 1e+00]
  RHS range        [1e+00, 1e+00]
Found heuristic solution: objective 74310.000000
Presolve removed 120 rows and 90 columns
Presolve time: 0.00s
Presolve: All rows and columns removed

Explored 0 nodes (0 simplex iterations) in 0.01 seconds
Thread count was 1 (of 4 available processors)

Solution count 2: 5340 74310 

Optimal solution found (tolerance 1.00e-04)
Best objective 5.340000000000e+03, best bound 5.340000000000e+03, gap 0.0000%
Freed default Gurobi environment

Gurobi 8.0.0 (win64, Python) logging started 12/03/18 18:47:47

Academic license - for non-commercial use only
Freed default Gurobi environment

Gurobi 8.0.0 (win64, Python) logging started 12/03/18 18:50:44

Academic license - for non-commercial use only
Freed default Gurobi environment

Gurobi 8.0.0 (win64, Python) logging started 12/03/18 18:51:25

Academic license - for non-commercial use only
Freed default Gurobi environment

Gurobi 8.0.0 (win64, Python) logging started 12/03/18 18:52:02

Academic license - for non-commercial use only
Optimize a model with 120 rows, 90 columns and 288 nonzeros
Variable types: 0 continuous, 90 integer (90 binary)
Coefficient statistics:
  Matrix range     [1e+00, 1e+00]
  Objective range  [1e+02, 2e+04]
  Bounds range     [1e+00, 1e+00]
  RHS range        [1e+00, 1e+00]
Found heuristic solution: objective 35630.000000
Presolve removed 120 rows and 90 columns
Presolve time: 0.00s
Presolve: All rows and columns removed

Explored 0 nodes (0 simplex iterations) in 0.01 seconds
Thread count was 1 (of 4 available processors)

Solution count 2: 5340 35630 

Optimal solution found (tolerance 1.00e-04)
Best objective 5.340000000000e+03, best bound 5.340000000000e+03, gap 0.0000%
Freed default Gurobi environment

Gurobi 8.0.0 (win64, Python) logging started 12/03/18 18:56:05

Academic license - for non-commercial use only
Optimize a model with 120 rows, 90 columns and 288 nonzeros
Variable types: 0 continuous, 90 integer (90 binary)
Coefficient statistics:
  Matrix range     [1e+00, 1e+00]
  Objective range  [1e+02, 2e+04]
  Bounds range     [1e+00, 1e+00]
  RHS range        [1e+00, 1e+00]
Found heuristic solution: objective 35630.000000
Presolve removed 120 rows and 90 columns
Presolve time: 0.00s
Presolve: All rows and columns removed

Explored 0 nodes (0 simplex iterations) in 0.01 seconds
Thread count was 1 (of 4 available processors)

Solution count 2: 5340 35630 

Optimal solution found (tolerance 1.00e-04)
Best objective 5.340000000000e+03, best bound 5.340000000000e+03, gap 0.0000%
Freed default Gurobi environment

Gurobi 8.0.0 (win64, Python) logging started 12/03/18 18:57:25

Academic license - for non-commercial use only
Optimize a model with 120 rows, 90 columns and 288 nonzeros
Variable types: 0 continuous, 90 integer (90 binary)
Coefficient statistics:
  Matrix range     [1e+00, 1e+00]
  Objective range  [1e+02, 2e+04]
  Bounds range     [1e+00, 1e+00]
  RHS range        [1e+00, 1e+00]
Found heuristic solution: objective 35630.000000
Presolve removed 120 rows and 90 columns
Presolve time: 0.00s
Presolve: All rows and columns removed

Explored 0 nodes (0 simplex iterations) in 0.01 seconds
Thread count was 1 (of 4 available processors)

Solution count 2: 5340 35630 

Optimal solution found (tolerance 1.00e-04)
Best objective 5.340000000000e+03, best bound 5.340000000000e+03, gap 0.0000%
Freed default Gurobi environment

Gurobi 8.0.0 (win64, Python) logging started 12/03/18 18:57:35

Academic license - for non-commercial use only
Optimize a model with 11973 rows, 7960 columns and 31044 nonzeros
Variable types: 0 continuous, 7960 integer (7960 binary)
Coefficient statistics:
  Matrix range     [1e+00, 1e+00]
  Objective range  [1e+02, 4e+04]
  Bounds range     [1e+00, 1e+00]
  RHS range        [1e+00, 1e+00]
Found heuristic solution: objective 553960.00000
Presolve removed 11960 rows and 7946 columns
Presolve time: 0.37s
Presolved: 13 rows, 14 columns, 30 nonzeros
Found heuristic solution: objective 183250.00000
Variable types: 0 continuous, 14 integer (14 binary)

Root relaxation: objective 1.320700e+05, 8 iterations, 0.00 seconds

    Nodes    |    Current Node    |     Objective Bounds      |     Work
 Expl Unexpl |  Obj  Depth IntInf | Incumbent    BestBd   Gap | It/Node Time

*    0     0               0    132070.00000 132070.000  0.00%     -    0s

Explored 0 nodes (8 simplex iterations) in 0.42 seconds
Thread count was 4 (of 4 available processors)

Solution count 2: 132070 183250 

Optimal solution found (tolerance 1.00e-04)
Best objective 1.320700000000e+05, best bound 1.320700000000e+05, gap 0.0000%
Optimize a model with 11973 rows, 7960 columns and 31044 nonzeros
Variable types: 0 continuous, 7960 integer (7960 binary)
Coefficient statistics:
  Matrix range     [1e+00, 1e+00]
  Objective range  [1e+02, 4e+04]
  Bounds range     [1e+00, 1e+00]
  RHS range        [1e+00, 1e+00]
Found heuristic solution: objective 553960.00000
Presolve removed 11960 rows and 7946 columns
Presolve time: 0.02s
Presolved: 13 rows, 14 columns, 30 nonzeros
Found heuristic solution: objective 183250.00000
Variable types: 0 continuous, 14 integer (14 binary)

Root relaxation: objective 1.320700e+05, 8 iterations, 0.00 seconds

    Nodes    |    Current Node    |     Objective Bounds      |     Work
 Expl Unexpl |  Obj  Depth IntInf | Incumbent    BestBd   Gap | It/Node Time

*    0     0               0    132070.00000 132070.000  0.00%     -    0s

Explored 0 nodes (8 simplex iterations) in 0.04 seconds
Thread count was 4 (of 4 available processors)

Solution count 2: 132070 183250 

Optimal solution found (tolerance 1.00e-04)
Best objective 1.320700000000e+05, best bound 1.320700000000e+05, gap 0.0000%
Optimize a model with 11973 rows, 7960 columns and 31044 nonzeros
Variable types: 0 continuous, 7960 integer (7960 binary)
Coefficient statistics:
  Matrix range     [1e+00, 1e+00]
  Objective range  [1e+02, 4e+04]
  Bounds range     [1e+00, 1e+00]
  RHS range        [1e+00, 1e+00]
Found heuristic solution: objective 553960.00000
Presolve removed 11960 rows and 7946 columns
Presolve time: 0.02s
Presolved: 13 rows, 14 columns, 30 nonzeros
Found heuristic solution: objective 183250.00000
Variable types: 0 continuous, 14 integer (14 binary)

Root relaxation: objective 1.320700e+05, 8 iterations, 0.00 seconds

    Nodes    |    Current Node    |     Objective Bounds      |     Work
 Expl Unexpl |  Obj  Depth IntInf | Incumbent    BestBd   Gap | It/Node Time

*    0     0               0    132070.00000 132070.000  0.00%     -    0s

Explored 0 nodes (8 simplex iterations) in 0.04 seconds
Thread count was 4 (of 4 available processors)

Solution count 2: 132070 183250 

Optimal solution found (tolerance 1.00e-04)
Best objective 1.320700000000e+05, best bound 1.320700000000e+05, gap 0.0000%
Optimize a model with 11973 rows, 7960 columns and 31044 nonzeros
Variable types: 0 continuous, 7960 integer (7960 binary)
Coefficient statistics:
  Matrix range     [1e+00, 1e+00]
  Objective range  [1e+02, 4e+04]
  Bounds range     [1e+00, 1e+00]
  RHS range        [1e+00, 1e+00]
Found heuristic solution: objective 553960.00000
Presolve removed 11960 rows and 7946 columns
Presolve time: 0.02s
Presolved: 13 rows, 14 columns, 30 nonzeros
Found heuristic solution: objective 183250.00000
Variable types: 0 continuous, 14 integer (14 binary)

Root relaxation: objective 1.320700e+05, 8 iterations, 0.00 seconds

    Nodes    |    Current Node    |     Objective Bounds      |     Work
 Expl Unexpl |  Obj  Depth IntInf | Incumbent    BestBd   Gap | It/Node Time

*    0     0               0    132070.00000 132070.000  0.00%     -    0s

Explored 0 nodes (8 simplex iterations) in 0.04 seconds
Thread count was 4 (of 4 available processors)

Solution count 2: 132070 183250 

Optimal solution found (tolerance 1.00e-04)
Best objective 1.320700000000e+05, best bound 1.320700000000e+05, gap 0.0000%
Freed default Gurobi environment

Gurobi 8.0.0 (win64, Python) logging started 12/03/18 19:00:13

Academic license - for non-commercial use only
Optimize a model with 341530 rows, 222270 columns and 885360 nonzeros
Variable types: 0 continuous, 222270 integer (222270 binary)
Coefficient statistics:
  Matrix range     [1e+00, 1e+00]
  Objective range  [1e+02, 1e+05]
  Bounds range     [1e+00, 1e+00]
  RHS range        [1e+00, 1e+00]
Found heuristic solution: objective 6343810.0000
Presolve removed 341402 rows and 222177 columns
Presolve time: 0.86s
Presolved: 128 rows, 93 columns, 267 nonzeros
Found heuristic solution: objective 402200.00000
Variable types: 0 continuous, 93 integer (93 binary)

Root relaxation: objective 2.354500e+05, 41 iterations, 0.07 seconds

    Nodes    |    Current Node    |     Objective Bounds      |     Work
 Expl Unexpl |  Obj  Depth IntInf | Incumbent    BestBd   Gap | It/Node Time

*    0     0               0    235450.00000 235450.000  0.00%     -    1s

Explored 0 nodes (41 simplex iterations) in 1.23 seconds
Thread count was 4 (of 4 available processors)

Solution count 3: 235450 402200 1.56826e+06 

Optimal solution found (tolerance 1.00e-04)
Best objective 2.354500000000e+05, best bound 2.354500000000e+05, gap 0.0000%
Optimize a model with 341530 rows, 222270 columns and 885360 nonzeros
Variable types: 0 continuous, 222270 integer (222270 binary)
Coefficient statistics:
  Matrix range     [1e+00, 1e+00]
  Objective range  [1e+02, 1e+05]
  Bounds range     [1e+00, 1e+00]
  RHS range        [1e+00, 1e+00]
Found heuristic solution: objective 6343810.0000
Presolve removed 341402 rows and 222177 columns
Presolve time: 0.84s
Presolved: 128 rows, 93 columns, 267 nonzeros
Found heuristic solution: objective 402200.00000
Variable types: 0 continuous, 93 integer (93 binary)

Root relaxation: objective 2.354500e+05, 41 iterations, 0.00 seconds

    Nodes    |    Current Node    |     Objective Bounds      |     Work
 Expl Unexpl |  Obj  Depth IntInf | Incumbent    BestBd   Gap | It/Node Time

*    0     0               0    235450.00000 235450.000  0.00%     -    1s

Explored 0 nodes (41 simplex iterations) in 1.11 seconds
Thread count was 4 (of 4 available processors)

Solution count 3: 235450 402200 1.56826e+06 

Optimal solution found (tolerance 1.00e-04)
Best objective 2.354500000000e+05, best bound 2.354500000000e+05, gap 0.0000%
Optimize a model with 341530 rows, 222270 columns and 885360 nonzeros
Variable types: 0 continuous, 222270 integer (222270 binary)
Coefficient statistics:
  Matrix range     [1e+00, 1e+00]
  Objective range  [1e+02, 1e+05]
  Bounds range     [1e+00, 1e+00]
  RHS range        [1e+00, 1e+00]
Found heuristic solution: objective 6343810.0000
Presolve removed 341402 rows and 222177 columns
Presolve time: 0.86s
Presolved: 128 rows, 93 columns, 267 nonzeros
Found heuristic solution: objective 402200.00000
Variable types: 0 continuous, 93 integer (93 binary)

Root relaxation: objective 2.354500e+05, 41 iterations, 0.00 seconds

    Nodes    |    Current Node    |     Objective Bounds      |     Work
 Expl Unexpl |  Obj  Depth IntInf | Incumbent    BestBd   Gap | It/Node Time

*    0     0               0    235450.00000 235450.000  0.00%     -    1s

Explored 0 nodes (41 simplex iterations) in 1.12 seconds
Thread count was 4 (of 4 available processors)

Solution count 3: 235450 402200 1.56826e+06 

Optimal solution found (tolerance 1.00e-04)
Best objective 2.354500000000e+05, best bound 2.354500000000e+05, gap 0.0000%
Optimize a model with 341530 rows, 222270 columns and 885360 nonzeros
Variable types: 0 continuous, 222270 integer (222270 binary)
Coefficient statistics:
  Matrix range     [1e+00, 1e+00]
  Objective range  [1e+02, 1e+05]
  Bounds range     [1e+00, 1e+00]
  RHS range        [1e+00, 1e+00]
Found heuristic solution: objective 6343810.0000
Presolve removed 341402 rows and 222177 columns
Presolve time: 0.85s
Presolved: 128 rows, 93 columns, 267 nonzeros
Found heuristic solution: objective 402200.00000
Variable types: 0 continuous, 93 integer (93 binary)

Root relaxation: objective 2.354500e+05, 41 iterations, 0.00 seconds

    Nodes    |    Current Node    |     Objective Bounds      |     Work
 Expl Unexpl |  Obj  Depth IntInf | Incumbent    BestBd   Gap | It/Node Time

*    0     0               0    235450.00000 235450.000  0.00%     -    1s

Explored 0 nodes (41 simplex iterations) in 1.11 seconds
Thread count was 4 (of 4 available processors)

Solution count 3: 235450 402200 1.56826e+06 

Optimal solution found (tolerance 1.00e-04)
Best objective 2.354500000000e+05, best bound 2.354500000000e+05, gap 0.0000%
Optimize a model with 341530 rows, 222270 columns and 885360 nonzeros
Variable types: 0 continuous, 222270 integer (222270 binary)
Coefficient statistics:
  Matrix range     [1e+00, 1e+00]
  Objective range  [1e+02, 1e+05]
  Bounds range     [1e+00, 1e+00]
  RHS range        [1e+00, 1e+00]
Found heuristic solution: objective 6343810.0000
Presolve removed 341402 rows and 222177 columns
Presolve time: 0.84s
Presolved: 128 rows, 93 columns, 267 nonzeros
Found heuristic solution: objective 402200.00000
Variable types: 0 continuous, 93 integer (93 binary)

Root relaxation: objective 2.354500e+05, 41 iterations, 0.00 seconds

    Nodes    |    Current Node    |     Objective Bounds      |     Work
 Expl Unexpl |  Obj  Depth IntInf | Incumbent    BestBd   Gap | It/Node Time

*    0     0               0    235450.00000 235450.000  0.00%     -    1s

Explored 0 nodes (41 simplex iterations) in 1.10 seconds
Thread count was 4 (of 4 available processors)

Solution count 3: 235450 402200 1.56826e+06 

Optimal solution found (tolerance 1.00e-04)
Best objective 2.354500000000e+05, best bound 2.354500000000e+05, gap 0.0000%
Freed default Gurobi environment

Gurobi 8.0.0 (win64, Python) logging started 12/03/18 19:03:25

Academic license - for non-commercial use only
Optimize a model with 120 rows, 90 columns and 288 nonzeros
Variable types: 0 continuous, 90 integer (90 binary)
Coefficient statistics:
  Matrix range     [1e+00, 1e+00]
  Objective range  [1e+02, 2e+04]
  Bounds range     [1e+00, 1e+00]
  RHS range        [1e+00, 1e+00]
Found heuristic solution: objective 35630.000000
Presolve removed 120 rows and 90 columns
Presolve time: 0.00s
Presolve: All rows and columns removed

Explored 0 nodes (0 simplex iterations) in 0.01 seconds
Thread count was 1 (of 4 available processors)

Solution count 2: 5340 35630 

Optimal solution found (tolerance 1.00e-04)
Best objective 5.340000000000e+03, best bound 5.340000000000e+03, gap 0.0000%
Freed default Gurobi environment
